;; Preprocessed for Astral solver
(set-info :status sat)
;; variables
(declare-const x0 Loc)
(declare-const x1 Loc)
(declare-const x2 Loc)
(declare-const x3 Loc)
(declare-const x4 Loc)
(declare-const x5 Loc)
(declare-const x6 Loc)
(declare-const x7 Loc)
(declare-const x8 Loc)
(declare-const x9 Loc)
(declare-const x10 Loc)
(declare-const x11 Loc)
(declare-const x12 Loc)
(declare-const x13 Loc)
(declare-const x14 Loc)
(declare-const x15 Loc)
(declare-const x16 Loc)
(declare-const x17 Loc)
(declare-const x18 Loc)
(declare-const x19 Loc)
(declare-const x20 Loc)
(declare-const x21 Loc)
(declare-const x22 Loc)
(declare-const x23 Loc)

(assert 
		(sep 
			(= nil nil)
			(distinct x11 x13)
			(distinct x11 x15)
			(distinct x3 x6)
			(distinct x7 x9)
			(distinct x9 x18)
			(distinct x9 x19)
			(distinct x12 x18)
			(distinct x12 x19)
			(distinct x2 x16)
			(distinct x2 x13)
			(distinct x8 x18)
			(distinct x8 x10)
			(distinct x1 x6)
			(distinct x1 x7)
			(distinct x1 x10)
			(distinct x1 x16)
			(distinct x1 x17)
			(distinct x5 x16)
			(distinct x5 x13)
		(sep 
			(ls x8 x1 )
			(ls x12 x19 )
			(ls x17 x19 )
			(ls x7 x17 )
			(ls x7 x12 )
			(ls x3 x2 )
		)

		)

)

(check-sat)
